NAME : random186.1042.tour
COMMENT : Length = 1042
COMMENT : Found by LKH [Keld Helsgaun] Sat Nov 23 17:38:14 2024
TYPE : TOUR
DIMENSION : 186
TOUR_SECTION
1
123
75
25
52
103
135
40
76
47
158
65
86
9
37
72
185
151
161
119
64
41
99
179
18
55
98
114
74
163
38
95
39
59
186
58
129
170
4
134
104
50
137
48
43
22
97
91
150
184
45
126
15
17
81
176
33
146
44
128
7
152
130
69
102
11
84
101
21
78
112
153
79
110
105
115
68
121
174
120
124
168
57
94
166
167
10
182
164
62
14
88
2
90
156
106
5
118
32
165
83
169
93
27
141
70
171
24
142
140
30
6
181
61
16
107
155
49
116
109
117
63
89
157
80
28
56
34
122
183
162
113
53
60
178
144
35
20
96
12
13
154
29
26
180
73
127
23
145
175
148
143
131
8
133
173
111
136
160
31
159
132
125
85
77
82
87
51
19
42
92
67
66
54
177
108
3
36
139
71
46
138
172
149
100
147
-1
EOF
